c A SAT instance generated from a 3-CNF formula that had 20 clauses and 9 variables
p cnf 9 26
-5 9 2 0
-6 -7 4 0
3 9 2 0
9 4 -5 0
5 -3 -8 0
-8 9 -4 0
-7 3 -1 0
7 -1 -5 0
-9 -1 4 0
-9 -2 -4 0
3 4 -5 0
6 1 7 0
-1 9 -4 0
-6 5 -1 0
3 9 8 0
2 4 -1 0
-2 -7 -5 0
7 -9 -1 0
-1 -7 -8 0
7 3 6 0
7 -8 0 
6 -7 0 
-9 1 0 
8 0
2 0
5 0

